p wcnf 170 255 256 
1 -162 147 0 
1 -26 34 0 
1 -155 -150 0 
1 131 -110 0 
1 -86 -49 0 
1 -97 59 0 
1 -63 148 0 
1 90 -37 0 
1 95 20 0 
1 83 59 0 
1 -50 -128 0 
1 -165 118 0 
1 -122 49 0 
1 -108 154 0 
1 -114 -141 0 
1 -163 -19 0 
1 -17 -52 0 
1 -36 168 0 
1 119 -2 0 
1 -21 -41 0 
1 -144 -34 0 
1 -73 70 0 
1 -128 60 0 
1 -103 113 0 
1 102 129 0 
1 24 -99 0 
1 -11 -144 0 
1 -41 78 0 
1 -112 -118 0 
1 -125 153 0 
1 -131 -74 0 
1 64 2 0 
1 -16 151 0 
1 -28 -141 0 
1 96 -18 0 
1 -19 147 0 
1 -57 39 0 
1 -69 -130 0 
1 -155 -87 0 
1 -124 123 0 
1 133 124 0 
1 131 -82 0 
1 -25 -125 0 
1 -105 100 0 
1 39 78 0 
1 129 -133 0 
1 -39 142 0 
1 -150 -147 0 
1 -47 -120 0 
1 56 -15 0 
1 -109 59 0 
1 168 139 0 
1 128 17 0 
1 162 119 0 
1 150 -129 0 
1 66 -140 0 
1 34 -70 0 
1 -108 -54 0 
1 -26 69 0 
1 -66 -58 0 
1 129 119 0 
1 -65 -9 0 
1 134 135 0 
1 109 -170 0 
1 99 117 0 
1 -60 137 0 
1 137 -102 0 
1 118 16 0 
1 -70 -85 0 
1 -5 -71 0 
1 33 152 0 
1 110 111 0 
1 15 -48 0 
1 -8 10 0 
1 -110 -17 0 
1 84 104 0 
1 169 19 0 
1 87 -103 0 
1 -133 33 0 
1 -12 -45 0 
1 36 63 0 
1 -10 143 0 
1 69 153 0 
1 3 133 0 
1 -66 -142 0 
1 35 -23 0 
1 -41 -16 0 
1 12 -137 0 
1 153 115 0 
1 17 147 0 
1 -147 -99 0 
1 -159 -167 0 
1 -128 115 0 
1 -21 24 0 
1 -75 147 0 
1 -21 -135 0 
1 -8 -18 0 
1 3 -72 0 
1 142 130 0 
1 123 48 0 
1 116 -10 0 
1 -123 54 0 
1 89 165 0 
1 -64 77 0 
1 61 15 0 
1 54 -29 0 
1 58 -86 0 
1 -140 -88 0 
1 -159 69 0 
1 -33 -114 0 
1 119 -22 0 
1 -36 -42 0 
1 -156 -166 0 
1 80 122 0 
1 -102 -49 0 
1 -26 69 0 
1 60 16 0 
1 22 108 0 
1 2 -66 0 
1 13 138 0 
1 -137 -168 0 
1 -57 -76 0 
1 41 51 0 
1 61 142 0 
1 28 -82 0 
1 -112 77 0 
1 -12 -161 0 
1 -72 -62 0 
1 -87 -129 0 
1 -6 -117 0 
1 -27 13 0 
1 132 -98 0 
1 135 92 0 
1 43 -19 0 
1 -24 -45 0 
1 -157 -116 0 
1 162 3 0 
1 -140 -156 0 
1 -14 -26 0 
1 -61 52 0 
1 -38 160 0 
1 -156 -63 0 
1 167 88 0 
1 -97 -165 0 
1 -2 -30 0 
1 26 -133 0 
1 107 161 0 
1 -58 148 0 
1 -56 72 0 
1 -62 54 0 
1 -105 101 0 
1 119 -14 0 
1 -63 124 0 
1 66 -32 0 
1 -35 -43 0 
1 -116 134 0 
1 -3 -163 0 
1 27 21 0 
1 -10 -52 0 
1 141 -104 0 
1 114 -76 0 
1 -16 -85 0 
1 107 33 0 
1 140 -25 0 
1 102 88 0 
1 165 -155 0 
1 -155 14 0 
1 -76 -167 0 
1 63 24 0 
1 -10 -85 0 
1 -159 -85 0 
1 14 75 0 
1 22 29 0 
1 -81 67 0 
1 140 18 0 
1 -141 -46 0 
1 74 -37 0 
1 10 -129 0 
1 -124 142 0 
1 -164 -127 0 
1 49 -102 0 
1 -87 78 0 
1 -125 111 0 
1 -101 -160 0 
1 71 23 0 
1 133 24 0 
1 -90 -127 0 
1 93 83 0 
1 51 -36 0 
1 -32 37 0 
1 -72 151 0 
1 76 -122 0 
1 -127 95 0 
1 156 -7 0 
1 -159 82 0 
1 -126 124 0 
1 -33 2 0 
1 -25 -150 0 
1 -38 35 0 
1 -18 61 0 
1 -89 -45 0 
1 30 -12 0 
1 -158 -42 0 
1 -29 -23 0 
1 -51 127 0 
1 -99 -139 0 
1 -36 -162 0 
1 147 49 0 
1 -37 -142 0 
1 17 -61 0 
1 -112 -116 0 
1 -150 167 0 
1 -73 46 0 
1 117 -72 0 
1 130 -144 0 
1 -74 -170 0 
1 49 25 0 
1 76 -34 0 
1 158 -126 0 
1 51 100 0 
1 97 146 0 
1 56 -1 0 
1 78 -74 0 
1 -71 128 0 
1 7 165 0 
1 121 -29 0 
1 69 -40 0 
1 6 75 0 
1 11 -114 0 
1 102 4 0 
1 61 115 0 
1 71 -5 0 
1 39 109 0 
1 -71 14 0 
1 -16 -145 0 
1 -118 119 0 
1 136 65 0 
1 5 139 0 
1 -34 -49 0 
1 91 164 0 
1 66 -48 0 
1 138 -79 0 
1 -70 23 0 
1 100 -157 0 
1 54 -90 0 
1 126 60 0 
1 -3 -78 0 
1 -153 -82 0 
1 -155 123 0 
1 -45 56 0 
1 -157 -95 0 
1 15 102 0 
1 138 118 0 
1 69 65 0 
1 -20 -85 0 
